NAME 
ROWS
 N  OBJ
 L  ULC[0]  
 L  ULC[1]  
 L  ULC[2]  
 L  ULC[3]  
 L  ULC[4]  
 L  LLC[0]  
 L  LLC[1]  
 L  LLC[2]  
 L  LLC[3]  
 L  LLC[4]  
COLUMNS
    MARKER    'MARKER'                 'INTORG'
    X[0]      OBJ       -6
    X[0]      ULC[0]    31
    X[0]      ULC[1]    95
    X[0]      ULC[2]    48
    X[0]      ULC[3]    74
    X[0]      ULC[4]    14
    X[0]      LLC[0]    53
    X[0]      LLC[1]    26
    X[0]      LLC[2]    21
    X[0]      LLC[3]    67
    X[0]      LLC[4]    47
    X[1]      OBJ       -2
    X[1]      ULC[0]    9
    X[1]      ULC[1]    4
    X[1]      ULC[2]    73
    X[1]      ULC[3]    76
    X[1]      ULC[4]    80
    X[1]      LLC[0]    51
    X[1]      LLC[1]    83
    X[1]      LLC[2]    45
    X[1]      LLC[3]    59
    X[1]      LLC[4]    90
    X[2]      OBJ       26
    X[2]      ULC[0]    29
    X[2]      ULC[1]    61
    X[2]      ULC[2]    7
    X[2]      ULC[3]    81
    X[2]      ULC[4]    77
    X[2]      LLC[1]    75
    X[2]      LLC[2]    46
    X[2]      LLC[3]    38
    X[2]      LLC[4]    88
    X[3]      OBJ       35
    X[3]      ULC[0]    3
    X[3]      ULC[1]    71
    X[3]      ULC[2]    74
    X[3]      ULC[3]    19
    X[3]      ULC[4]    61
    X[3]      LLC[0]    39
    X[3]      LLC[1]    34
    X[3]      LLC[2]    80
    X[3]      LLC[3]    77
    X[3]      LLC[4]    90
    X[4]      OBJ       24
    X[4]      ULC[0]    99
    X[4]      ULC[1]    36
    X[4]      ULC[2]    53
    X[4]      ULC[3]    45
    X[4]      ULC[4]    1
    X[4]      LLC[0]    67
    X[4]      LLC[1]    93
    X[4]      LLC[2]    59
    X[4]      LLC[3]    68
    X[4]      LLC[4]    18
    X[5]      OBJ       6
    X[5]      ULC[0]    15
    X[5]      ULC[1]    30
    X[5]      ULC[2]    49
    X[5]      ULC[3]    35
    X[5]      ULC[4]    90
    X[5]      LLC[0]    89
    X[5]      LLC[1]    42
    X[5]      LLC[2]    12
    X[5]      LLC[3]    86
    X[5]      LLC[4]    88
    X[6]      OBJ       18
    X[6]      ULC[0]    8
    X[6]      ULC[1]    41
    X[6]      ULC[2]    39
    X[6]      ULC[3]    49
    X[6]      ULC[4]    82
    X[6]      LLC[0]    89
    X[6]      LLC[1]    92
    X[6]      LLC[2]    63
    X[6]      LLC[3]    67
    X[6]      LLC[4]    2
    X[7]      OBJ       -40
    X[7]      ULC[0]    19
    X[7]      ULC[1]    16
    X[7]      ULC[2]    14
    X[7]      ULC[3]    63
    X[7]      ULC[4]    80
    X[7]      LLC[0]    1
    X[7]      LLC[1]    34
    X[7]      LLC[2]    80
    X[7]      LLC[3]    71
    X[7]      LLC[4]    80
    X[8]      OBJ       -30
    X[8]      ULC[0]    10
    X[8]      ULC[1]    36
    X[8]      ULC[2]    79
    X[8]      ULC[3]    65
    X[8]      ULC[4]    73
    X[8]      LLC[0]    49
    X[8]      LLC[1]    81
    X[8]      LLC[2]    29
    X[8]      LLC[3]    62
    X[8]      LLC[4]    100
    X[9]      OBJ       46
    X[9]      ULC[0]    80
    X[9]      ULC[1]    8
    X[9]      ULC[2]    68
    X[9]      ULC[3]    38
    X[9]      ULC[4]    9
    X[9]      LLC[0]    65
    X[9]      LLC[1]    78
    X[9]      LLC[2]    12
    X[9]      LLC[3]    95
    X[9]      LLC[4]    5
    Y[0]      OBJ       -30
    Y[0]      ULC[0]    14
    Y[0]      ULC[1]    2
    Y[0]      ULC[2]    89
    Y[0]      ULC[3]    5
    Y[0]      ULC[4]    1
    Y[0]      LLC[0]    45
    Y[0]      LLC[1]    93
    Y[0]      LLC[2]    12
    Y[0]      LLC[3]    72
    Y[0]      LLC[4]    61
    Y[1]      OBJ       10
    Y[1]      ULC[0]    18
    Y[1]      ULC[1]    80
    Y[1]      ULC[2]    31
    Y[1]      ULC[3]    24
    Y[1]      ULC[4]    81
    Y[1]      LLC[0]    2
    Y[1]      LLC[1]    64
    Y[1]      LLC[2]    37
    Y[1]      LLC[3]    10
    Y[1]      LLC[4]    38
    Y[2]      OBJ       -4
    Y[2]      ULC[0]    6
    Y[2]      ULC[1]    62
    Y[2]      ULC[2]    22
    Y[2]      ULC[3]    49
    Y[2]      ULC[4]    25
    Y[2]      LLC[0]    3
    Y[2]      LLC[1]    11
    Y[2]      LLC[2]    6
    Y[2]      LLC[3]    15
    Y[2]      LLC[4]    49
    Y[3]      OBJ       32
    Y[3]      ULC[0]    85
    Y[3]      ULC[1]    74
    Y[3]      ULC[2]    40
    Y[3]      ULC[3]    70
    Y[3]      ULC[4]    76
    Y[3]      LLC[0]    52
    Y[3]      LLC[1]    6
    Y[3]      LLC[2]    14
    Y[3]      LLC[3]    40
    Y[3]      LLC[4]    52
    Y[4]      OBJ       12
    Y[4]      ULC[0]    92
    Y[4]      ULC[1]    2
    Y[4]      ULC[2]    61
    Y[4]      ULC[3]    72
    Y[4]      ULC[4]    72
    Y[4]      LLC[0]    90
    Y[4]      LLC[1]    41
    Y[4]      LLC[2]    71
    Y[4]      LLC[3]    100
    Y[4]      LLC[4]    27
    Y[5]      OBJ       -12
    Y[5]      ULC[0]    28
    Y[5]      ULC[1]    34
    Y[5]      ULC[2]    13
    Y[5]      ULC[3]    22
    Y[5]      ULC[4]    58
    Y[5]      LLC[0]    78
    Y[5]      LLC[1]    77
    Y[5]      LLC[2]    82
    Y[5]      LLC[3]    36
    Y[5]      LLC[4]    61
    Y[6]      OBJ       -11
    Y[6]      ULC[0]    11
    Y[6]      ULC[1]    26
    Y[6]      ULC[2]    27
    Y[6]      ULC[4]    17
    Y[6]      LLC[0]    24
    Y[6]      LLC[1]    97
    Y[6]      LLC[2]    80
    Y[6]      LLC[3]    46
    Y[6]      LLC[4]    93
    Y[7]      OBJ       29
    Y[7]      ULC[0]    58
    Y[7]      ULC[1]    15
    Y[7]      ULC[2]    97
    Y[7]      ULC[3]    58
    Y[7]      ULC[4]    23
    Y[7]      LLC[0]    42
    Y[7]      LLC[1]    26
    Y[7]      LLC[2]    94
    Y[7]      LLC[3]    74
    Y[7]      LLC[4]    84
    Y[8]      OBJ       22
    Y[8]      ULC[0]    78
    Y[8]      ULC[1]    89
    Y[8]      ULC[2]    65
    Y[8]      ULC[3]    87
    Y[8]      ULC[4]    12
    Y[8]      LLC[0]    57
    Y[8]      LLC[1]    45
    Y[8]      LLC[2]    10
    Y[8]      LLC[3]    67
    Y[8]      LLC[4]    14
    Y[9]      OBJ       38
    Y[9]      ULC[0]    68
    Y[9]      ULC[1]    96
    Y[9]      ULC[2]    28
    Y[9]      ULC[3]    70
    Y[9]      ULC[4]    76
    Y[9]      LLC[0]    34
    Y[9]      LLC[1]    46
    Y[9]      LLC[2]    79
    Y[9]      LLC[3]    63
    Y[9]      LLC[4]    88
    MARKER    'MARKER'                 'INTEND'
RHS
    RHS1      ULC[0]    570
    RHS1      ULC[1]    658
    RHS1      ULC[2]    732
    RHS1      ULC[3]    751
    RHS1      ULC[4]    756
    RHS1      LLC[0]    807
    RHS1      LLC[1]    890
    RHS1      LLC[2]    709
    RHS1      LLC[3]    890
    RHS1      LLC[4]    859
BOUNDS
 BV BND1      X[0]    
 BV BND1      X[1]    
 BV BND1      X[2]    
 BV BND1      X[3]    
 BV BND1      X[4]    
 BV BND1      X[5]    
 BV BND1      X[6]    
 BV BND1      X[7]    
 BV BND1      X[8]    
 BV BND1      X[9]    
 BV BND1      Y[0]    
 BV BND1      Y[1]    
 BV BND1      Y[2]    
 BV BND1      Y[3]    
 BV BND1      Y[4]    
 BV BND1      Y[5]    
 BV BND1      Y[6]    
 BV BND1      Y[7]    
 BV BND1      Y[8]    
 BV BND1      Y[9]    
ENDATA
